c Sudoku solution
p cnf 729 0
176 0
219 0
226 0
328 0
334 0
355 0
371 0
433 0
469 0
494 0
512 0
551 0
567 0
578 0
618 0
625 0
524 0
654 0
682 0
715 0
736 0
416 0
539 0
752 0
458 0
442 0
545 0
768 0
822 0
847 0
914 0
965 0
987 0
727 0
929 0
813 0
111 0
317 0
123 0
421 0
637 0
691 0
679 0
485 0
477 0
253 0
157 0
297 0
956 0
859 0
663 0
646 0
349 0
366 0
392 0
383 0
972 0
773 0
799 0
998 0
943 0
838 0
931 0
586 0
593 0
896 0
875 0
274 0
288 0
195 0
189 0
132 0
235 0
164 0
262 0
241 0
148 0
744 0
861 0
781 0
884 0
